predicate diffnChoco(array [int] of var int: x,array [int] of var int: y,array [int] of var int: dx,array [int] of var int: dy);
array [1..2] of int: X_INTRODUCED_99_ = [1,-1];
array [1..32] of int: X_INTRODUCED_141_ = [1,1,1,1,1,1,1,1,1,1,1,1,1,1,1,1,1,1,1,1,1,1,1,1,1,1,1,1,1,1,1,1];
array [1..16] of int: X_INTRODUCED_144_ = [2,2,2,2,2,2,2,2,2,2,2,2,2,2,2,2];
array [1..16] of int: X_INTRODUCED_145_ = [1,1,1,1,1,1,1,1,1,1,1,1,1,1,1,1];
var 0..100: X_INTRODUCED_0_;
var 0..100: X_INTRODUCED_1_;
var 0..100: X_INTRODUCED_2_;
var 0..100: X_INTRODUCED_3_;
var 0..100: X_INTRODUCED_4_;
var 0..100: X_INTRODUCED_5_;
var 0..100: X_INTRODUCED_6_;
var 0..100: X_INTRODUCED_7_;
var 0..100: X_INTRODUCED_8_;
var 0..100: X_INTRODUCED_9_;
var 0..100: X_INTRODUCED_10_;
var 0..100: X_INTRODUCED_11_;
var 0..100: X_INTRODUCED_12_;
var 0..100: X_INTRODUCED_13_;
var 0..100: X_INTRODUCED_14_;
var 0..100: X_INTRODUCED_15_;
var 0..100: X_INTRODUCED_16_;
var 0..100: X_INTRODUCED_17_;
var 0..100: X_INTRODUCED_18_;
var 0..100: X_INTRODUCED_19_;
var 0..100: X_INTRODUCED_20_;
var 0..100: X_INTRODUCED_21_;
var 0..100: X_INTRODUCED_22_;
var 0..100: X_INTRODUCED_23_;
var 0..100: X_INTRODUCED_24_;
var 0..100: X_INTRODUCED_25_;
var 0..100: X_INTRODUCED_26_;
var 0..100: X_INTRODUCED_27_;
var 0..100: X_INTRODUCED_28_;
var 0..100: X_INTRODUCED_29_;
var 0..100: X_INTRODUCED_30_;
var 0..100: X_INTRODUCED_31_;
var 0..100: X_INTRODUCED_32_;
var 0..100: X_INTRODUCED_33_;
var 0..100: X_INTRODUCED_34_;
var 0..100: X_INTRODUCED_35_;
var 0..100: X_INTRODUCED_36_;
var 0..100: X_INTRODUCED_37_;
var 0..100: X_INTRODUCED_38_;
var 0..100: X_INTRODUCED_39_;
var 0..100: X_INTRODUCED_40_;
var 0..100: X_INTRODUCED_41_;
var 0..100: X_INTRODUCED_42_;
var 0..100: X_INTRODUCED_43_;
var 0..100: X_INTRODUCED_44_;
var 0..100: X_INTRODUCED_45_;
var 0..100: X_INTRODUCED_46_;
var 0..100: X_INTRODUCED_47_;
var 1..3: X_INTRODUCED_64_;
var 1..3: X_INTRODUCED_65_;
var 1..3: X_INTRODUCED_66_;
var 1..3: X_INTRODUCED_67_;
var 1..3: X_INTRODUCED_68_;
var 1..3: X_INTRODUCED_69_;
var 1..3: X_INTRODUCED_70_;
var 1..3: X_INTRODUCED_71_;
var 1..3: X_INTRODUCED_72_;
var 1..3: X_INTRODUCED_73_;
var 1..3: X_INTRODUCED_74_;
var 1..3: X_INTRODUCED_75_;
var 1..3: X_INTRODUCED_76_;
var 1..3: X_INTRODUCED_77_;
var 1..3: X_INTRODUCED_78_;
var 1..3: X_INTRODUCED_79_;
var 1..101: X_INTRODUCED_147_ ::var_is_introduced :: is_defined_var;
var 1..101: X_INTRODUCED_148_ ::var_is_introduced :: is_defined_var;
var 1..101: X_INTRODUCED_149_ ::var_is_introduced :: is_defined_var;
var 1..101: X_INTRODUCED_150_ ::var_is_introduced :: is_defined_var;
var 1..101: X_INTRODUCED_151_ ::var_is_introduced :: is_defined_var;
var 1..101: X_INTRODUCED_152_ ::var_is_introduced :: is_defined_var;
var 1..101: X_INTRODUCED_153_ ::var_is_introduced :: is_defined_var;
var 1..101: X_INTRODUCED_156_ ::var_is_introduced :: is_defined_var;
var 1..101: X_INTRODUCED_164_ ::var_is_introduced :: is_defined_var;
var 1..101: X_INTRODUCED_165_ ::var_is_introduced :: is_defined_var;
var 1..101: X_INTRODUCED_166_ ::var_is_introduced :: is_defined_var;
var 1..101: X_INTRODUCED_167_ ::var_is_introduced :: is_defined_var;
var 1..101: X_INTRODUCED_168_ ::var_is_introduced :: is_defined_var;
var 1..101: X_INTRODUCED_169_ ::var_is_introduced :: is_defined_var;
var 1..101: X_INTRODUCED_170_ ::var_is_introduced :: is_defined_var;
var 1..101: objective:: output_var = X_INTRODUCED_170_;
array [1..48] of var int: t:: output_array([1..48]) = [X_INTRODUCED_0_,X_INTRODUCED_1_,X_INTRODUCED_2_,X_INTRODUCED_3_,X_INTRODUCED_4_,X_INTRODUCED_5_,X_INTRODUCED_6_,X_INTRODUCED_7_,X_INTRODUCED_8_,X_INTRODUCED_9_,X_INTRODUCED_10_,X_INTRODUCED_11_,X_INTRODUCED_12_,X_INTRODUCED_13_,X_INTRODUCED_14_,X_INTRODUCED_15_,X_INTRODUCED_16_,X_INTRODUCED_17_,X_INTRODUCED_18_,X_INTRODUCED_19_,X_INTRODUCED_20_,X_INTRODUCED_21_,X_INTRODUCED_22_,X_INTRODUCED_23_,X_INTRODUCED_24_,X_INTRODUCED_25_,X_INTRODUCED_26_,X_INTRODUCED_27_,X_INTRODUCED_28_,X_INTRODUCED_29_,X_INTRODUCED_30_,X_INTRODUCED_31_,X_INTRODUCED_32_,X_INTRODUCED_33_,X_INTRODUCED_34_,X_INTRODUCED_35_,X_INTRODUCED_36_,X_INTRODUCED_37_,X_INTRODUCED_38_,X_INTRODUCED_39_,X_INTRODUCED_40_,X_INTRODUCED_41_,X_INTRODUCED_42_,X_INTRODUCED_43_,X_INTRODUCED_44_,X_INTRODUCED_45_,X_INTRODUCED_46_,X_INTRODUCED_47_];
array [1..48] of var int: r:: output_array([1..48]) = [1,1,1,1,1,1,1,1,1,1,1,1,1,1,1,1,X_INTRODUCED_64_,X_INTRODUCED_65_,X_INTRODUCED_66_,X_INTRODUCED_67_,X_INTRODUCED_68_,X_INTRODUCED_69_,X_INTRODUCED_70_,X_INTRODUCED_71_,X_INTRODUCED_72_,X_INTRODUCED_73_,X_INTRODUCED_74_,X_INTRODUCED_75_,X_INTRODUCED_76_,X_INTRODUCED_77_,X_INTRODUCED_78_,X_INTRODUCED_79_,1,1,1,1,1,1,1,1,1,1,1,1,1,1,1,1];
array [1..32] of var int: X_INTRODUCED_139_ ::var_is_introduced  = [X_INTRODUCED_0_,X_INTRODUCED_1_,X_INTRODUCED_2_,X_INTRODUCED_3_,X_INTRODUCED_4_,X_INTRODUCED_5_,X_INTRODUCED_6_,X_INTRODUCED_7_,X_INTRODUCED_8_,X_INTRODUCED_9_,X_INTRODUCED_10_,X_INTRODUCED_11_,X_INTRODUCED_12_,X_INTRODUCED_13_,X_INTRODUCED_14_,X_INTRODUCED_15_,X_INTRODUCED_32_,X_INTRODUCED_33_,X_INTRODUCED_34_,X_INTRODUCED_35_,X_INTRODUCED_36_,X_INTRODUCED_37_,X_INTRODUCED_38_,X_INTRODUCED_39_,X_INTRODUCED_40_,X_INTRODUCED_41_,X_INTRODUCED_42_,X_INTRODUCED_43_,X_INTRODUCED_44_,X_INTRODUCED_45_,X_INTRODUCED_46_,X_INTRODUCED_47_];
array [1..32] of var int: X_INTRODUCED_140_ ::var_is_introduced  = [1,1,1,1,1,1,1,1,1,1,1,1,1,1,1,1,1,1,1,1,1,1,1,1,1,1,1,1,1,1,1,1];
array [1..16] of var int: X_INTRODUCED_142_ ::var_is_introduced  = [X_INTRODUCED_16_,X_INTRODUCED_17_,X_INTRODUCED_18_,X_INTRODUCED_19_,X_INTRODUCED_20_,X_INTRODUCED_21_,X_INTRODUCED_22_,X_INTRODUCED_23_,X_INTRODUCED_24_,X_INTRODUCED_25_,X_INTRODUCED_26_,X_INTRODUCED_27_,X_INTRODUCED_28_,X_INTRODUCED_29_,X_INTRODUCED_30_,X_INTRODUCED_31_];
array [1..16] of var int: X_INTRODUCED_143_ ::var_is_introduced  = [X_INTRODUCED_64_,X_INTRODUCED_65_,X_INTRODUCED_66_,X_INTRODUCED_67_,X_INTRODUCED_68_,X_INTRODUCED_69_,X_INTRODUCED_70_,X_INTRODUCED_71_,X_INTRODUCED_72_,X_INTRODUCED_73_,X_INTRODUCED_74_,X_INTRODUCED_75_,X_INTRODUCED_76_,X_INTRODUCED_77_,X_INTRODUCED_78_,X_INTRODUCED_79_];
constraint int_lin_le(X_INTRODUCED_99_,[X_INTRODUCED_0_,X_INTRODUCED_8_],-1);
constraint int_lin_le(X_INTRODUCED_99_,[X_INTRODUCED_0_,X_INTRODUCED_16_],-1);
constraint int_lin_le(X_INTRODUCED_99_,[X_INTRODUCED_0_,X_INTRODUCED_17_],-1);
constraint int_lin_le(X_INTRODUCED_99_,[X_INTRODUCED_1_,X_INTRODUCED_8_],-1);
constraint int_lin_le(X_INTRODUCED_99_,[X_INTRODUCED_1_,X_INTRODUCED_19_],-1);
constraint int_lin_le(X_INTRODUCED_99_,[X_INTRODUCED_1_,X_INTRODUCED_20_],-1);
constraint int_lin_le(X_INTRODUCED_99_,[X_INTRODUCED_2_,X_INTRODUCED_9_],-1);
constraint int_lin_le(X_INTRODUCED_99_,[X_INTRODUCED_2_,X_INTRODUCED_22_],-1);
constraint int_lin_le(X_INTRODUCED_99_,[X_INTRODUCED_2_,X_INTRODUCED_23_],-1);
constraint int_lin_le(X_INTRODUCED_99_,[X_INTRODUCED_3_,X_INTRODUCED_9_],-1);
constraint int_lin_le(X_INTRODUCED_99_,[X_INTRODUCED_3_,X_INTRODUCED_25_],-1);
constraint int_lin_le(X_INTRODUCED_99_,[X_INTRODUCED_3_,X_INTRODUCED_26_],-1);
constraint int_lin_le(X_INTRODUCED_99_,[X_INTRODUCED_4_,X_INTRODUCED_10_],-1);
constraint int_lin_le(X_INTRODUCED_99_,[X_INTRODUCED_4_,X_INTRODUCED_11_],-1);
constraint int_lin_le(X_INTRODUCED_99_,[X_INTRODUCED_5_,X_INTRODUCED_10_],-1);
constraint int_lin_le(X_INTRODUCED_99_,[X_INTRODUCED_5_,X_INTRODUCED_11_],-1);
constraint int_lin_le(X_INTRODUCED_99_,[X_INTRODUCED_6_,X_INTRODUCED_12_],-1);
constraint int_lin_le(X_INTRODUCED_99_,[X_INTRODUCED_6_,X_INTRODUCED_13_],-1);
constraint int_lin_le(X_INTRODUCED_99_,[X_INTRODUCED_7_,X_INTRODUCED_12_],-1);
constraint int_lin_le(X_INTRODUCED_99_,[X_INTRODUCED_7_,X_INTRODUCED_13_],-1);
constraint int_lin_le(X_INTRODUCED_99_,[X_INTRODUCED_8_,X_INTRODUCED_14_],-1);
constraint int_lin_le(X_INTRODUCED_99_,[X_INTRODUCED_8_,X_INTRODUCED_18_],-1);
constraint int_lin_le(X_INTRODUCED_99_,[X_INTRODUCED_9_,X_INTRODUCED_14_],-1);
constraint int_lin_le(X_INTRODUCED_99_,[X_INTRODUCED_9_,X_INTRODUCED_24_],-1);
constraint int_lin_le(X_INTRODUCED_99_,[X_INTRODUCED_10_,X_INTRODUCED_27_],-1);
constraint int_lin_le(X_INTRODUCED_99_,[X_INTRODUCED_11_,X_INTRODUCED_15_],-1);
constraint int_lin_le(X_INTRODUCED_99_,[X_INTRODUCED_11_,X_INTRODUCED_29_],-1);
constraint int_lin_le(X_INTRODUCED_99_,[X_INTRODUCED_12_,X_INTRODUCED_28_],-1);
constraint int_lin_le(X_INTRODUCED_99_,[X_INTRODUCED_13_,X_INTRODUCED_15_],-1);
constraint int_lin_le(X_INTRODUCED_99_,[X_INTRODUCED_13_,X_INTRODUCED_31_],-1);
constraint int_lin_le(X_INTRODUCED_99_,[X_INTRODUCED_14_,X_INTRODUCED_21_],-1);
constraint int_lin_le(X_INTRODUCED_99_,[X_INTRODUCED_15_,X_INTRODUCED_30_],-1);
constraint int_lin_le(X_INTRODUCED_99_,[X_INTRODUCED_16_,X_INTRODUCED_32_],-2);
constraint int_lin_le(X_INTRODUCED_99_,[X_INTRODUCED_17_,X_INTRODUCED_38_],-2);
constraint int_lin_le(X_INTRODUCED_99_,[X_INTRODUCED_18_,X_INTRODUCED_32_],-2);
constraint int_lin_le(X_INTRODUCED_99_,[X_INTRODUCED_18_,X_INTRODUCED_34_],-2);
constraint int_lin_le(X_INTRODUCED_99_,[X_INTRODUCED_19_,X_INTRODUCED_34_],-2);
constraint int_lin_le(X_INTRODUCED_99_,[X_INTRODUCED_20_,X_INTRODUCED_36_],-2);
constraint int_lin_le(X_INTRODUCED_99_,[X_INTRODUCED_21_,X_INTRODUCED_33_],-2);
constraint int_lin_le(X_INTRODUCED_99_,[X_INTRODUCED_21_,X_INTRODUCED_35_],-2);
constraint int_lin_le(X_INTRODUCED_99_,[X_INTRODUCED_21_,X_INTRODUCED_36_],-2);
constraint int_lin_le(X_INTRODUCED_99_,[X_INTRODUCED_21_,X_INTRODUCED_38_],-2);
constraint int_lin_le(X_INTRODUCED_99_,[X_INTRODUCED_22_,X_INTRODUCED_35_],-2);
constraint int_lin_le(X_INTRODUCED_99_,[X_INTRODUCED_23_,X_INTRODUCED_37_],-2);
constraint int_lin_le(X_INTRODUCED_99_,[X_INTRODUCED_24_,X_INTRODUCED_37_],-2);
constraint int_lin_le(X_INTRODUCED_99_,[X_INTRODUCED_24_,X_INTRODUCED_39_],-2);
constraint int_lin_le(X_INTRODUCED_99_,[X_INTRODUCED_25_,X_INTRODUCED_33_],-2);
constraint int_lin_le(X_INTRODUCED_99_,[X_INTRODUCED_26_,X_INTRODUCED_39_],-2);
constraint int_lin_le(X_INTRODUCED_99_,[X_INTRODUCED_27_,X_INTRODUCED_44_],-2);
constraint int_lin_le(X_INTRODUCED_99_,[X_INTRODUCED_27_,X_INTRODUCED_45_],-2);
constraint int_lin_le(X_INTRODUCED_99_,[X_INTRODUCED_28_,X_INTRODUCED_44_],-2);
constraint int_lin_le(X_INTRODUCED_99_,[X_INTRODUCED_28_,X_INTRODUCED_45_],-2);
constraint int_lin_le(X_INTRODUCED_99_,[X_INTRODUCED_29_,X_INTRODUCED_46_],-2);
constraint int_lin_le(X_INTRODUCED_99_,[X_INTRODUCED_30_,X_INTRODUCED_46_],-2);
constraint int_lin_le(X_INTRODUCED_99_,[X_INTRODUCED_30_,X_INTRODUCED_47_],-2);
constraint int_lin_le(X_INTRODUCED_99_,[X_INTRODUCED_31_,X_INTRODUCED_47_],-2);
constraint int_lin_le(X_INTRODUCED_99_,[X_INTRODUCED_32_,X_INTRODUCED_40_],-1);
constraint int_lin_le(X_INTRODUCED_99_,[X_INTRODUCED_33_,X_INTRODUCED_40_],-1);
constraint int_lin_le(X_INTRODUCED_99_,[X_INTRODUCED_34_,X_INTRODUCED_41_],-1);
constraint int_lin_le(X_INTRODUCED_99_,[X_INTRODUCED_35_,X_INTRODUCED_41_],-1);
constraint int_lin_le(X_INTRODUCED_99_,[X_INTRODUCED_36_,X_INTRODUCED_42_],-1);
constraint int_lin_le(X_INTRODUCED_99_,[X_INTRODUCED_37_,X_INTRODUCED_42_],-1);
constraint int_lin_le(X_INTRODUCED_99_,[X_INTRODUCED_38_,X_INTRODUCED_43_],-1);
constraint int_lin_le(X_INTRODUCED_99_,[X_INTRODUCED_39_,X_INTRODUCED_43_],-1);
constraint diffnChoco(X_INTRODUCED_139_,X_INTRODUCED_140_,X_INTRODUCED_141_,X_INTRODUCED_141_);
constraint diffnChoco(X_INTRODUCED_142_,X_INTRODUCED_143_,X_INTRODUCED_144_,X_INTRODUCED_145_);
constraint int_lin_eq(X_INTRODUCED_99_,[X_INTRODUCED_156_,X_INTRODUCED_40_],1):: defines_var(X_INTRODUCED_156_);
constraint int_max(X_INTRODUCED_147_,X_INTRODUCED_156_,X_INTRODUCED_164_):: defines_var(X_INTRODUCED_164_);
constraint int_max(X_INTRODUCED_148_,X_INTRODUCED_164_,X_INTRODUCED_165_):: defines_var(X_INTRODUCED_165_);
constraint int_max(X_INTRODUCED_149_,X_INTRODUCED_165_,X_INTRODUCED_166_):: defines_var(X_INTRODUCED_166_);
constraint int_max(X_INTRODUCED_150_,X_INTRODUCED_166_,X_INTRODUCED_167_):: defines_var(X_INTRODUCED_167_);
constraint int_max(X_INTRODUCED_151_,X_INTRODUCED_167_,X_INTRODUCED_168_):: defines_var(X_INTRODUCED_168_);
constraint int_max(X_INTRODUCED_152_,X_INTRODUCED_168_,X_INTRODUCED_169_):: defines_var(X_INTRODUCED_169_);
constraint int_max(X_INTRODUCED_153_,X_INTRODUCED_169_,X_INTRODUCED_170_):: defines_var(X_INTRODUCED_170_);
constraint int_lin_eq([1,-1],[X_INTRODUCED_41_,X_INTRODUCED_147_],-1):: defines_var(X_INTRODUCED_147_);
constraint int_lin_eq([1,-1],[X_INTRODUCED_42_,X_INTRODUCED_148_],-1):: defines_var(X_INTRODUCED_148_);
constraint int_lin_eq([1,-1],[X_INTRODUCED_43_,X_INTRODUCED_149_],-1):: defines_var(X_INTRODUCED_149_);
constraint int_lin_eq([1,-1],[X_INTRODUCED_44_,X_INTRODUCED_150_],-1):: defines_var(X_INTRODUCED_150_);
constraint int_lin_eq([1,-1],[X_INTRODUCED_45_,X_INTRODUCED_151_],-1):: defines_var(X_INTRODUCED_151_);
constraint int_lin_eq([1,-1],[X_INTRODUCED_46_,X_INTRODUCED_152_],-1):: defines_var(X_INTRODUCED_152_);
constraint int_lin_eq([1,-1],[X_INTRODUCED_47_,X_INTRODUCED_153_],-1):: defines_var(X_INTRODUCED_153_);
solve :: seq_search([int_search(t,smallest,indomain_min,complete),int_search(r,input_order,indomain_min,complete)]) minimize X_INTRODUCED_170_;
